% seed = 7366487

mint = 43;
% maxt = 113;

nActs = 22;
dur = [0,1,7,7,8,3,6,3,4,6,8,3,9,2,7,9,4,8,6,6,6,0];

nSkills = 4;
sreq = [| 0,0,0,0,
	| 2,3,3,2,
	| 1,2,1,1,
	| 1,1,2,1,
	| 1,1,3,2,
	| 1,1,2,1,
	| 2,2,2,2,
	| 3,3,2,3,
	| 2,3,2,3,
	| 2,1,3,2,
	| 3,2,3,3,
	| 2,1,3,3,
	| 3,2,3,1,
	| 1,2,2,1,
	| 1,2,1,2,
	| 1,2,3,2,
	| 2,3,1,3,
	| 3,2,3,2,
	| 1,3,1,2,
	| 1,2,3,2,
	| 2,3,2,1,
	| 0,0,0,0, |];

nResources = 25;
mastery = [| true,false,false,true,
	| false,true,false,false,
	| true,false,false,false,
	| false,false,true,true,
	| true,true,true,false,
	| true,false,true,false,
	| true,true,true,false,
	| false,false,false,true,
	| true,false,true,false,
	| true,true,false,true,
	| true,false,false,false,
	| true,false,true,false,
	| false,false,true,true,
	| false,true,false,true,
	| false,false,true,false,
	| false,true,false,true,
	| false,true,false,false,
	| true,false,true,true,
	| true,false,true,true,
	| false,true,true,true,
	| true,true,false,true,
	| true,false,true,true,
	| false,false,true,true,
	| false,true,true,true,
	| false,true,true,true, |];

nPrecs = 31;
pred = [1,1,1,2,2,3,3,4,5,6,6,6,7,7,7,8,8,9,10,11,12,13,14,15,15,16,17,18,19,20,21];
succ = [2,3,4,6,7,20,5,8,8,17,19,12,11,14,15,9,14,10,13,12,20,21,21,18,16,19,18,20,22,22,22];

nUnrels = 121;
unpred = [2,2,2,2,2,2,2,3,3,3,3,3,3,3,3,3,3,4,4,4,4,4,4,4,4,4,4,4,5,5,5,5,5,5,5,5,5,5,6,6,6,6,6,6,6,6,6,6,7,7,7,7,7,8,8,8,8,8,8,8,8,9,9,9,9,9,9,9,9,9,10,10,10,10,10,10,10,10,10,11,11,11,11,11,11,11,11,12,12,12,12,12,12,12,12,13,13,13,13,13,13,13,14,14,14,14,14,14,15,15,16,16,16,16,17,17,18,18,19,19,20];
unsucc = [3,4,5,8,9,10,13,4,6,7,11,12,15,16,17,18,19,5,6,7,11,12,15,16,17,18,19,20,6,7,11,12,15,16,17,18,19,20,7,8,9,10,11,13,14,15,16,21,8,9,10,13,17,11,12,15,16,17,18,19,20,11,12,14,15,16,17,18,19,20,11,12,14,15,16,17,18,19,20,13,14,15,16,17,18,19,21,13,14,15,16,17,18,19,21,14,15,16,17,18,19,20,15,16,17,18,19,20,17,21,17,18,20,21,19,21,19,21,20,21,21];

USEFUL_RES = [{},
	{1,2,3,4,5,6,7,8,9,10,11,12,13,14,15,16,17,18,19,20,21,22,23,24,25},
	{1,2,3,4,5,6,7,8,9,10,11,12,13,14,15,16,17,18,19,20,21,22,23,24,25},
	{1,2,3,4,5,6,7,8,9,10,11,12,13,14,15,16,17,18,19,20,21,22,23,24,25},
	{1,2,3,4,5,6,7,8,9,10,11,12,13,14,15,16,17,18,19,20,21,22,23,24,25},
	{1,2,3,4,5,6,7,8,9,10,11,12,13,14,15,16,17,18,19,20,21,22,23,24,25},
	{1,2,3,4,5,6,7,8,9,10,11,12,13,14,15,16,17,18,19,20,21,22,23,24,25},
	{1,2,3,4,5,6,7,8,9,10,11,12,13,14,15,16,17,18,19,20,21,22,23,24,25},
	{1,2,3,4,5,6,7,8,9,10,11,12,13,14,15,16,17,18,19,20,21,22,23,24,25},
	{1,2,3,4,5,6,7,8,9,10,11,12,13,14,15,16,17,18,19,20,21,22,23,24,25},
	{1,2,3,4,5,6,7,8,9,10,11,12,13,14,15,16,17,18,19,20,21,22,23,24,25},
	{1,2,3,4,5,6,7,8,9,10,11,12,13,14,15,16,17,18,19,20,21,22,23,24,25},
	{1,2,3,4,5,6,7,8,9,10,11,12,13,14,15,16,17,18,19,20,21,22,23,24,25},
	{1,2,3,4,5,6,7,8,9,10,11,12,13,14,15,16,17,18,19,20,21,22,23,24,25},
	{1,2,3,4,5,6,7,8,9,10,11,12,13,14,15,16,17,18,19,20,21,22,23,24,25},
	{1,2,3,4,5,6,7,8,9,10,11,12,13,14,15,16,17,18,19,20,21,22,23,24,25},
	{1,2,3,4,5,6,7,8,9,10,11,12,13,14,15,16,17,18,19,20,21,22,23,24,25},
	{1,2,3,4,5,6,7,8,9,10,11,12,13,14,15,16,17,18,19,20,21,22,23,24,25},
	{1,2,3,4,5,6,7,8,9,10,11,12,13,14,15,16,17,18,19,20,21,22,23,24,25},
	{1,2,3,4,5,6,7,8,9,10,11,12,13,14,15,16,17,18,19,20,21,22,23,24,25},
	{1,2,3,4,5,6,7,8,9,10,11,12,13,14,15,16,17,18,19,20,21,22,23,24,25},
	{}];

POTENTIAL_ACT = [{2,3,4,5,6,7,8,9,10,11,12,13,14,15,16,17,18,19,20,21},
	{2,3,4,5,6,7,8,9,10,11,12,13,14,15,16,17,18,19,20,21},
	{2,3,4,5,6,7,8,9,10,11,12,13,14,15,16,17,18,19,20,21},
	{2,3,4,5,6,7,8,9,10,11,12,13,14,15,16,17,18,19,20,21},
	{2,3,4,5,6,7,8,9,10,11,12,13,14,15,16,17,18,19,20,21},
	{2,3,4,5,6,7,8,9,10,11,12,13,14,15,16,17,18,19,20,21},
	{2,3,4,5,6,7,8,9,10,11,12,13,14,15,16,17,18,19,20,21},
	{2,3,4,5,6,7,8,9,10,11,12,13,14,15,16,17,18,19,20,21},
	{2,3,4,5,6,7,8,9,10,11,12,13,14,15,16,17,18,19,20,21},
	{2,3,4,5,6,7,8,9,10,11,12,13,14,15,16,17,18,19,20,21},
	{2,3,4,5,6,7,8,9,10,11,12,13,14,15,16,17,18,19,20,21},
	{2,3,4,5,6,7,8,9,10,11,12,13,14,15,16,17,18,19,20,21},
	{2,3,4,5,6,7,8,9,10,11,12,13,14,15,16,17,18,19,20,21},
	{2,3,4,5,6,7,8,9,10,11,12,13,14,15,16,17,18,19,20,21},
	{2,3,4,5,6,7,8,9,10,11,12,13,14,15,16,17,18,19,20,21},
	{2,3,4,5,6,7,8,9,10,11,12,13,14,15,16,17,18,19,20,21},
	{2,3,4,5,6,7,8,9,10,11,12,13,14,15,16,17,18,19,20,21},
	{2,3,4,5,6,7,8,9,10,11,12,13,14,15,16,17,18,19,20,21},
	{2,3,4,5,6,7,8,9,10,11,12,13,14,15,16,17,18,19,20,21},
	{2,3,4,5,6,7,8,9,10,11,12,13,14,15,16,17,18,19,20,21},
	{2,3,4,5,6,7,8,9,10,11,12,13,14,15,16,17,18,19,20,21},
	{2,3,4,5,6,7,8,9,10,11,12,13,14,15,16,17,18,19,20,21},
	{2,3,4,5,6,7,8,9,10,11,12,13,14,15,16,17,18,19,20,21},
	{2,3,4,5,6,7,8,9,10,11,12,13,14,15,16,17,18,19,20,21},
	{2,3,4,5,6,7,8,9,10,11,12,13,14,15,16,17,18,19,20,21}];
